; benchmark generated from python API
(set-info :status unknown)
(declare-datatypes ((RealState 0)) (((RMk1 (rval1 Real)) (RMk2 (rval2 Real)))))
 (assert
 (forall ((|v17:0| Real) )(forall ((|v16:1| Real) )(forall ((|v15:2| Real) )(forall ((|v14:3| Real) )(forall ((|v13:4| Real) )(forall ((|v12:5| Real) )(exists ((|v11:6_st| RealState) (val!9546 Real) )(exists ((|v10:7_st| RealState) (val!9547 Real) )(exists ((|v9:8_st| RealState) (val!9548 Real) )(exists ((|v8:9_st| RealState) (val!9549 Real) )(exists ((|v7:10_st| RealState) (val!9550 Real) )(exists ((|v6:11_st| RealState) (val!9551 Real) )(forall ((|v5:12| Real) )(forall ((|v4:13| Real) )(forall ((|v3:14| Real) )(forall ((|v2:15| Real) )(forall ((|v1:16| Real) )(forall ((|v0:17| Real) )(let ((?x8351 (* 14.0 |v0:17|)))
 (let ((?x1560 (- 8.0)))
 (let ((?x282 (* ?x1560 |v5:12|)))
 (let ((?x7139 (+ (+ (+ (* (- 15.0) |v0:17|) (* 7.0 |v0:17|)) (* 10.0 |v14:3|)) ?x282)))
 (let ((?x2508 (+ (+ (+ ?x7139 ?x8351) (* (- 5.0) (rval2 |v9:8_st|))) (* (- 9.0) |v17:0|))))
 (let ((?x8278 (* 3.0 |v1:16|)))
 (let ((?x2068 (* 9.0 |v12:5|)))
 (let ((?x1678 (rval2 |v11:6_st|)))
 (let ((?x8455 (* 19.0 ?x1678)))
 (let ((?x8646 (- 17.0)))
 (let ((?x986 (* ?x8646 |v15:2|)))
 (let ((?x4479 (+ (+ (+ (* 7.0 |v12:5|) (* (- 6.0) |v12:5|)) (* 12.0 |v12:5|)) ?x986)))
 (let ((?x6487 (- 6.0)))
 (let ((?x8153 (rval2 |v7:10_st|)))
 (let ((?x879 (* 17.0 ?x8153)))
 (let ((?x1116 (* ?x6487 |v1:16|)))
 (let ((?x4651 (rval2 |v6:11_st|)))
 (let ((?x2950 (* 15.0 ?x4651)))
 (let ((?x1935 (+ (+ (+ (* 11.0 |v5:12|) (* (- 9.0) |v1:16|)) |v2:15|) (* (- 7.0) |v0:17|))))
 (let ((?x5253 (- 5.0)))
 (let ((?x976 (- 12.0)))
 (let ((?x4885 (* ?x976 ?x4651)))
 (let ((?x9068 (* 2.0 |v0:17|)))
 (let ((?x1913 (* 18.0 |v12:5|)))
 (let ((?x2149 (+ (+ (+ (* 15.0 |v17:0|) (* (- 7.0) |v2:15|)) (* (- 11.0) |v12:5|)) (* ?x8646 (rval2 |v10:7_st|)))))
 (let (($x7687 (or (<= (+ (+ (+ ?x2149 ?x1913) ?x9068) ?x4885) ?x5253) (<= (+ (+ (+ ?x1935 ?x2950) ?x1116) ?x879) ?x6487))))
 (let (($x8421 (or $x7687 (and (<= (+ (+ (+ ?x4479 ?x8455) ?x2068) ?x8278) 11.0) (<= ?x2508 8.0)))))
 (let ((?x1195 (rval2 |v9:8_st|)))
 (let ((?x2683 (* 11.0 ?x1195)))
 (let ((?x2408 (* 19.0 |v0:17|)))
 (let ((?x5363 (* 16.0 |v12:5|)))
 (let ((?x6831 (- 14.0)))
 (let ((?x242 (* ?x6831 |v0:17|)))
 (let ((?x6573 (+ (+ (+ (* (- 13.0) |v2:15|) (* ?x976 |v2:15|)) (* 3.0 (rval2 |v8:9_st|))) ?x242)))
 (let ((?x8545 (* 13.0 |v4:13|)))
 (let ((?x3267 (* 9.0 ?x8153)))
 (let ((?x6715 (+ (+ (+ (* 0.0 |v12:5|) (* 7.0 (rval2 |v10:7_st|))) (* (- 9.0) ?x1195)) (* (- 19.0) ?x4651))))
 (let (($x4546 (and (<= (+ (+ (+ ?x6715 ?x3267) (* 16.0 |v17:0|)) ?x8545) 10.0) (<= (+ (+ (+ ?x6573 ?x5363) ?x2408) ?x2683) 4.0))))
 (let ((?x4774 (- 4.0)))
 (let ((?x7153 (rval2 |v8:9_st|)))
 (let ((?x3523 (- 10.0)))
 (let ((?x1151 (* ?x3523 ?x7153)))
 (let ((?x6782 (* 19.0 |v4:13|)))
 (let ((?x3293 (- 2.0)))
 (let ((?x7488 (* ?x3293 ?x8153)))
 (let ((?x7413 (- 11.0)))
 (let ((?x2880 (* ?x7413 ?x4651)))
 (let ((?x5803 (+ (+ (+ (* 17.0 |v1:16|) (* 5.0 ?x7153)) (* (- 13.0) |v2:15|)) ?x2880)))
 (let ((?x359 (* 7.0 |v14:3|)))
 (let ((?x735 (- 3.0)))
 (let ((?x8651 (* ?x735 |v3:14|)))
 (let ((?x8831 (+ (+ (+ (* ?x1560 ?x1678) (* 4.0 (rval2 |v10:7_st|))) (* ?x3293 ?x7153)) ?x8651)))
 (let (($x9312 (and (<= (+ (+ (+ ?x8831 ?x359) ?x7153) (* 5.0 ?x4651)) ?x6831) (<= (+ (+ (+ ?x5803 ?x7488) ?x6782) ?x1151) ?x4774))))
 (let ((?x7569 (* 8.0 |v2:15|)))
 (let ((?x5994 (- 20.0)))
 (let ((?x1684 (* ?x5994 |v2:15|)))
 (let ((?x8743 (+ (+ (+ (+ ?x8278 (* 10.0 ?x4651)) (* (- 19.0) |v4:13|)) ?x1684) (* (- 9.0) ?x4651))))
 (let ((?x674 (- 7.0)))
 (let ((?x7736 (* ?x674 |v4:13|)))
 (let ((?x7386 (- 15.0)))
 (let ((?x772 (* ?x7386 |v5:12|)))
 (let ((?x3828 (+ (+ (+ (* 3.0 ?x8153) (* 12.0 ?x4651)) (* 7.0 |v12:5|)) (* ?x3523 |v12:5|))))
 (let (($x2082 (or (<= (+ (+ (+ ?x3828 (* ?x6487 ?x1678)) ?x772) ?x7736) ?x3293) (<= (+ (+ ?x8743 (* ?x3293 (rval2 |v10:7_st|))) ?x7569) ?x7413))))
 (let ((?x3799 (* 2.0 ?x1678)))
 (let ((?x1239 (* ?x7386 |v14:3|)))
 (let ((?x928 (- 9.0)))
 (let ((?x8828 (* ?x928 |v15:2|)))
 (let ((?x6761 (* 0.0 ?x7153)))
 (let ((?x2339 (+ (+ (+ (* (- 1.0) |v0:17|) (* 17.0 (rval2 |v10:7_st|))) (* ?x7413 |v2:15|)) ?x6761)))
 (let ((?x3610 (* 17.0 |v4:13|)))
 (let ((?x4764 (* 12.0 |v15:2|)))
 (let ((?x6359 (* 17.0 ?x1195)))
 (let ((?x1630 (* ?x7413 ?x1195)))
 (let ((?x3254 (+ (+ (+ (* 0.0 |v3:14|) (* 2.0 (rval2 |v10:7_st|))) (* (- 18.0) |v17:0|)) ?x1630)))
 (let (($x7799 (and (<= (+ (+ (+ ?x3254 ?x6359) ?x4764) ?x3610) 8.0) (<= (+ (+ (+ ?x2339 ?x8828) ?x1239) ?x3799) 7.0))))
 (let ((?x923 (* 2.0 ?x1195)))
 (let ((?x7655 (- 19.0)))
 (let ((?x5989 (* ?x7655 ?x8153)))
 (let ((?x6815 (- 13.0)))
 (let ((?x272 (* ?x6815 |v14:3|)))
 (let ((?x492 (* ?x5253 |v4:13|)))
 (let ((?x6645 (+ (+ (+ (+ (* ?x6487 |v12:5|) (* ?x5253 |v12:5|)) (* 8.0 |v0:17|)) ?x492) ?x272)))
 (let ((?x3272 (* ?x3523 |v16:1|)))
 (let ((?x2818 (* 5.0 |v17:0|)))
 (let ((?x1292 (+ (+ (+ (+ (* 3.0 |v14:3|) (* 6.0 |v14:3|)) (* ?x6815 ?x1195)) ?x2818) (* ?x3523 |v13:4|))))
 (let (($x9081 (and (<= (+ (+ ?x1292 ?x3272) (* ?x3293 |v12:5|)) ?x8646) (<= (+ (+ ?x6645 ?x5989) ?x923) 11.0))))
 (let ((?x1862 (* ?x5253 |v1:16|)))
 (let ((?x3598 (* ?x8646 ?x1678)))
 (let ((?x6678 (+ (+ (+ (* ?x6815 |v12:5|) (* 3.0 ?x1195)) (* 10.0 ?x4651)) (* ?x3293 |v15:2|))))
 (let ((?x7873 (* ?x8646 |v14:3|)))
 (let ((?x9442 (* ?x1560 |v2:15|)))
 (let ((?x1119 (+ (+ (+ (+ (* ?x976 (rval2 |v10:7_st|)) (* ?x7413 |v15:2|)) (* ?x3293 ?x7153)) ?x9442) ?x3610)))
 (let (($x6290 (or (<= (+ (+ ?x1119 ?x1862) ?x7873) ?x7413) (<= (+ (+ (+ ?x6678 (* 14.0 ?x4651)) ?x3598) ?x1862) ?x6815))))
 (let ((?x6644 (* 9.0 |v0:17|)))
 (let ((?x8543 (* 18.0 |v5:12|)))
 (let ((?x5465 (* ?x6831 |v2:15|)))
 (let ((?x2563 (* 16.0 |v1:16|)))
 (let ((?x5903 (+ (+ (+ (+ (* ?x6815 ?x1195) (* ?x674 |v3:14|)) (* ?x928 |v14:3|)) ?x2563) ?x5465)))
 (let ((?x3104 (* 8.0 ?x1678)))
 (let ((?x8990 (* ?x7655 ?x7153)))
 (let ((?x4849 (* 6.0 |v16:1|)))
 (let ((?x3654 (* ?x7386 |v12:5|)))
 (let ((?x3535 (+ (+ (+ (* 3.0 ?x8153) (* 8.0 |v14:3|)) (* 17.0 (rval2 |v10:7_st|))) ?x3654)))
 (let (($x1421 (and (<= (+ (+ (+ ?x3535 ?x4849) ?x8990) ?x3104) ?x7655) (<= (+ (+ ?x5903 ?x8543) ?x6644) ?x4774))))
 (let ((?x4807 (* ?x674 ?x1678)))
 (let ((?x1780 (* 20.0 |v3:14|)))
 (let ((?x2510 (+ (+ (+ (+ ?x3104 (* 10.0 |v14:3|)) (* 17.0 |v16:1|)) (* ?x928 |v12:5|)) ?x1780)))
 (let ((?x8310 (* 5.0 |v2:15|)))
 (let ((?x5777 (* 12.0 ?x8153)))
 (let ((?x1611 (* 6.0 |v1:16|)))
 (let ((?x7140 (* ?x7413 |v2:15|)))
 (let ((?x2549 (+ (+ (+ (+ ?x1195 (* ?x735 |v4:13|)) (* 4.0 (rval2 |v10:7_st|))) ?x7140) ?x1611)))
 (let (($x5520 (or (<= (+ (+ ?x2549 ?x5777) ?x8310) ?x6831) (<= (+ (+ ?x2510 ?x4807) (* ?x5994 |v12:5|)) 13.0))))
 (let ((?x2305 (* ?x5253 |v12:5|)))
 (let ((?x1357 (* 13.0 |v12:5|)))
 (let ((?x7545 (+ (+ (+ (+ (* 2.0 |v17:0|) (* 20.0 ?x7153)) (* 18.0 ?x8153)) ?x7569) ?x1357)))
 (let ((?x7690 (* 6.0 |v13:4|)))
 (let ((?x5012 (* 11.0 ?x7153)))
 (let ((?x4316 (* 9.0 ?x1678)))
 (let ((?x8402 (+ (+ (+ (+ (* (- 1.0) ?x1195) (* ?x3293 |v14:3|)) (* ?x3523 ?x1678)) ?x4316) ?x5012)))
 (let ((?x5995 (+ (+ (+ (+ (* ?x7386 |v0:17|) (* 7.0 |v4:13|)) ?x4316) (* 20.0 ?x8153)) (* ?x5253 |v15:2|))))
 (let ((?x4654 (* 5.0 |v3:14|)))
 (let ((?x7496 (* 7.0 |v2:15|)))
 (let ((?x5044 (* ?x6831 |v12:5|)))
 (let ((?x745 (+ (+ (+ (+ ?x879 (* 14.0 |v13:4|)) (* 12.0 |v12:5|)) (* ?x674 ?x7153)) ?x5044)))
 (let (($x1837 (or (<= (+ (+ ?x745 ?x7496) ?x4654) 16.0) (<= (+ (+ ?x5995 (* ?x7386 |v16:1|)) (* ?x7386 ?x1195)) ?x7413))))
 (let ((?x6612 (* 14.0 ?x7153)))
 (let ((?x6438 (+ (+ (+ (+ ?x986 (* (- 1.0) |v16:1|)) (* 10.0 |v2:15|)) ?x6612) (* 3.0 ?x4651))))
 (let ((?x8960 (* 0.0 |v4:13|)))
 (let ((?x9443 (* 10.0 |v13:4|)))
 (let ((?x7602 (* 4.0 ?x7153)))
 (let ((?x7892 (+ (+ (+ (+ (* 19.0 ?x4651) (* 13.0 |v17:0|)) (* ?x1560 |v14:3|)) ?x7602) ?x9443)))
 (let (($x5090 (and (<= (+ (+ ?x7892 ?x8960) (* ?x6487 ?x8153)) ?x3293) (<= (+ (+ ?x6438 (* (- 18.0) ?x4651)) (* ?x3523 ?x1195)) ?x5253))))
 (let ((?x9127 (* 3.0 |v3:14|)))
 (let ((?x9234 (+ (+ (+ (+ (* ?x3293 |v14:3|) ?x492) (* 16.0 |v3:14|)) (* (- 18.0) |v13:4|)) ?x9127)))
 (let ((?x1206 (- 1.0)))
 (let ((?x1281 (* ?x7386 ?x8153)))
 (let ((?x5083 (+ (+ (+ (* ?x6487 |v14:3|) (* ?x1560 |v4:13|)) (* ?x3523 |v5:12|)) (* ?x3293 ?x4651))))
 (let (($x2132 (and (<= (+ (+ (+ ?x5083 ?x1281) ?x1862) (* 8.0 |v17:0|)) ?x1206) (<= (+ (+ ?x9234 (* ?x5994 |v13:4|)) (* (- 16.0) |v12:5|)) ?x928))))
 (let (($x6466 (or (and (and $x2132 $x5090) (or $x1837 (<= (+ (+ ?x8402 ?x2408) ?x7690) 4.0))) (and (<= (+ (+ ?x7545 ?x7873) ?x2305) 1.0) (and $x5520 $x1421)))))
 (let (($x971 (and $x6466 (and (or (and $x6290 $x9081) (or $x7799 $x2082)) (and (or $x9312 $x4546) $x8421)))))
 (let ((?x3210 (+ (+ (+ (+ ?x8651 (* 16.0 |v13:4|)) (* ?x8646 |v13:4|)) (* ?x3293 |v1:16|)) (* ?x6831 |v16:1|))))
 (let ((?x6905 (rval2 |v10:7_st|)))
 (let ((?x1164 (* 2.0 ?x6905)))
 (let ((?x2908 (* 7.0 |v5:12|)))
 (let ((?x8190 (+ (+ (+ (+ (* 20.0 ?x4651) ?x2068) (* ?x7655 |v1:16|)) (* ?x6487 |v4:13|)) ?x2908)))
 (let (($x9112 (or (<= (+ (+ ?x8190 ?x7496) ?x1164) ?x8646) (<= (+ (+ ?x3210 (* 8.0 ?x1195)) ?x7690) ?x6487))))
 (let ((?x4478 (* 12.0 ?x7153)))
 (let ((?x2946 (- 16.0)))
 (let ((?x5641 (* ?x2946 |v2:15|)))
 (let ((?x5468 (* ?x735 |v12:5|)))
 (let ((?x2292 (+ (+ (+ (+ (* 20.0 ?x1678) (* 3.0 |v14:3|)) ?x7488) (* ?x1560 |v15:2|)) ?x5468)))
 (let ((?x1993 (* ?x6831 |v1:16|)))
 (let ((?x2354 (* 20.0 |v5:12|)))
 (let ((?x3247 (+ (+ (+ (+ (* ?x7655 |v0:17|) (* 0.0 ?x1195)) (* 8.0 ?x6905)) ?x2354) ?x1993)))
 (let (($x2138 (or (<= (+ (+ ?x3247 (* 7.0 ?x1678)) ?x6761) 2.0) (<= (+ (+ ?x2292 ?x5641) ?x4478) 13.0))))
 (let ((?x6541 (* 12.0 ?x1678)))
 (let ((?x5971 (* 5.0 ?x1195)))
 (let ((?x7009 (* 3.0 |v15:2|)))
 (let ((?x483 (+ (+ (+ (+ (* 17.0 ?x4651) (* 6.0 ?x8153)) (* ?x976 |v2:15|)) ?x7009) ?x5971)))
 (let ((?x2297 (* ?x5994 |v4:13|)))
 (let ((?x658 (* 2.0 ?x7153)))
 (let ((?x3422 (* ?x5253 |v17:0|)))
 (let ((?x7506 (+ (+ (+ (+ ?x9442 (* 19.0 ?x4651)) (* 3.0 ?x1678)) (* 12.0 |v0:17|)) ?x3422)))
 (let (($x3855 (and (<= (+ (+ ?x7506 ?x658) ?x2297) 17.0) (<= (+ (+ ?x483 (* ?x3293 |v13:4|)) ?x6541) 12.0))))
 (let ((?x1479 (* 19.0 |v14:3|)))
 (let ((?x2179 (* ?x7413 ?x6905)))
 (let ((?x3486 (+ (+ (+ (+ (* 17.0 |v15:2|) ?x8455) (* ?x928 |v2:15|)) (* 16.0 |v13:4|)) ?x2179)))
 (let ((?x6983 (* ?x1560 ?x6905)))
 (let ((?x2886 (* 18.0 |v3:14|)))
 (let ((?x3420 (* 4.0 |v13:4|)))
 (let ((?x4745 (+ (+ (+ (+ (* 0.0 |v0:17|) (* ?x7386 ?x6905)) (* 10.0 |v16:1|)) ?x3420) ?x2886)))
 (let (($x8074 (or (<= (+ (+ ?x4745 ?x5468) ?x6983) ?x6831) (<= (+ (+ ?x3486 ?x1479) (* ?x4774 ?x6905)) 7.0))))
 (let ((?x5920 (* ?x2946 |v3:14|)))
 (let ((?x5665 (* 9.0 |v4:13|)))
 (let ((?x5922 (+ (+ (* ?x4774 |v1:16|) (* ?x3523 |v1:16|)) (* 9.0 |v5:12|))))
 (let ((?x6553 (* 11.0 |v1:16|)))
 (let ((?x1364 (+ (+ (+ (+ (+ ?x272 ?x8828) (* 11.0 |v15:2|)) (* ?x2946 |v14:3|)) ?x6553) (* ?x6831 |v13:4|))))
 (let (($x2400 (and (<= (+ ?x1364 ?x1678) ?x3293) (<= (+ (+ (+ (+ ?x5922 (* 9.0 |v14:3|)) ?x3272) ?x5665) ?x5920) 2.0))))
 (let ((?x2402 (* 6.0 ?x4651)))
 (let ((?x370 (+ (+ (+ (* ?x5253 |v3:14|) (* 0.0 ?x6905)) (* 7.0 |v1:16|)) (* ?x5253 |v13:4|))))
 (let ((?x1612 (* 6.0 |v15:2|)))
 (let ((?x6384 (* ?x4774 |v1:16|)))
 (let ((?x1420 (* 4.0 |v3:14|)))
 (let ((?x3046 (+ (+ (+ (+ (* 11.0 |v15:2|) ?x5971) (* 7.0 |v15:2|)) (* 8.0 ?x8153)) ?x1420)))
 (let (($x2966 (or (<= (+ (+ ?x3046 ?x6384) ?x1612) ?x7413) (<= (+ (+ (+ ?x370 (* 7.0 |v13:4|)) ?x2886) ?x2402) ?x5994))))
 (let ((?x2809 (+ (+ (+ (+ (* (- 18.0) |v15:2|) (* 3.0 |v5:12|)) ?x1913) (* ?x5994 ?x6905)) (* ?x6831 ?x1195))))
 (let ((?x6561 (* ?x6487 |v4:13|)))
 (let ((?x5098 (* ?x6487 |v5:12|)))
 (let ((?x7469 (+ (+ (+ (+ (* 8.0 ?x6905) (* 13.0 |v14:3|)) (* 17.0 |v2:15|)) ?x5098) ?x8310)))
 (let (($x1456 (and (<= (+ (+ ?x7469 (* 15.0 |v13:4|)) ?x6561) ?x1206) (<= (+ (+ ?x2809 ?x8990) (* ?x674 ?x8153)) 13.0))))
 (let ((?x5218 (* 6.0 |v3:14|)))
 (let ((?x3116 (+ (+ (+ (+ (* ?x8646 ?x1195) ?x2179) (* ?x6815 |v1:16|)) (* ?x976 ?x1195)) ?x5218)))
 (let ((?x824 (* 9.0 |v2:15|)))
 (let ((?x5007 (+ (+ (+ (* ?x5994 |v17:0|) (* ?x8646 ?x7153)) (* 6.0 ?x1195)) (* ?x4774 ?x4651))))
 (let (($x854 (or (<= (+ (+ (+ ?x5007 ?x8351) ?x824) (* ?x6815 |v15:2|)) 16.0) (<= (+ (+ ?x3116 (* ?x5994 ?x8153)) (* ?x6487 |v15:2|)) 3.0))))
 (let (($x2710 (and (and (or $x854 $x1456) (or $x2966 $x2400)) (or (and $x8074 $x3855) (and $x2138 $x9112)))))
 (let ((?x6304 (* ?x7655 |v4:13|)))
 (let ((?x5930 (+ (+ (+ (+ (+ ?x8651 (* ?x735 |v14:3|)) ?x1151) (* ?x2946 |v5:12|)) ?x6304) (* ?x4774 |v12:5|))))
 (let ((?x6556 (* ?x2946 |v1:16|)))
 (let ((?x7421 (* 10.0 ?x1195)))
 (let ((?x6111 (+ (+ (+ (+ (* ?x2946 ?x7153) (* ?x6487 |v12:5|)) (* ?x735 ?x8153)) ?x7421) ?x6556)))
 (let (($x7835 (and (<= (+ (+ ?x6111 (* (- 18.0) ?x8153)) ?x6983) ?x928) (<= (+ ?x5930 (* ?x5994 ?x1678)) 13.0))))
 (let ((?x9461 (* 13.0 |v0:17|)))
 (let ((?x7638 (* 16.0 |v5:12|)))
 (let ((?x5109 (+ (+ (+ (+ (* 15.0 ?x6905) (* 10.0 |v15:2|)) (* 10.0 ?x1678)) ?x7638) ?x9461)))
 (let ((?x4124 (+ (+ (+ (+ (* ?x6487 ?x6905) (* 20.0 ?x7153)) (* 16.0 |v16:1|)) ?x1862) (* ?x928 |v16:1|))))
 (let (($x7582 (and (<= (+ (+ ?x4124 ?x6612) ?x4885) ?x6487) (<= (+ (+ ?x5109 ?x2068) ?x1151) ?x3523))))
 (let ((?x8664 (+ (+ (+ (+ (+ ?x1357 (* 18.0 |v16:1|)) ?x658) (* 11.0 |v0:17|)) ?x5044) ?x8651)))
 (let ((?x5245 (* ?x976 |v5:12|)))
 (let ((?x3428 (* 19.0 |v1:16|)))
 (let ((?x9002 (+ (+ (+ (+ ?x5777 (* ?x8646 |v4:13|)) (* 18.0 |v16:1|)) (* 15.0 |v16:1|)) ?x3428)))
 (let (($x7281 (or (<= (+ (+ ?x9002 (* 2.0 |v16:1|)) ?x5245) 0.0) (<= (+ ?x8664 ?x6384) 7.0))))
 (let ((?x7043 (* 3.0 |v14:3|)))
 (let ((?x1540 (* 20.0 ?x1195)))
 (let ((?x7715 (+ (+ (+ (+ (* 9.0 |v17:0|) (* 14.0 |v1:16|)) (* 11.0 |v17:0|)) ?x8828) ?x1540)))
 (let ((?x6670 (* 2.0 |v4:13|)))
 (let ((?x8433 (+ (+ (+ (+ (* 10.0 ?x6905) ?x272) (* 15.0 |v2:15|)) (* ?x735 ?x8153)) ?x6670)))
 (let (($x6801 (or (<= (+ (+ ?x8433 ?x3654) (* ?x5994 |v15:2|)) 20.0) (<= (+ (+ ?x7715 (* 4.0 |v14:3|)) ?x7043) 11.0))))
 (let ((?x66 (* 17.0 |v15:2|)))
 (let ((?x2597 (* ?x8646 ?x1195)))
 (let ((?x1581 (* 17.0 |v1:16|)))
 (let ((?x1404 (+ (+ (+ (+ (* ?x6815 ?x7153) (* ?x8646 |v16:1|)) (* (- 18.0) |v5:12|)) ?x1581) ?x2597)))
 (let ((?x7977 (* 2.0 |v5:12|)))
 (let ((?x3622 (+ (+ (+ (+ (* 20.0 ?x4651) (* ?x3293 |v1:16|)) (* ?x5253 |v16:1|)) ?x7977) (* 18.0 ?x6905))))
 (let (($x7357 (and (<= (+ (+ ?x3622 ?x1151) (* ?x735 |v13:4|)) ?x8646) (<= (+ (+ ?x1404 ?x66) ?x8990) ?x5994))))
 (let ((?x7283 (* 8.0 |v5:12|)))
 (let ((?x3032 (* ?x735 ?x8153)))
 (let ((?x4045 (+ (+ (+ (+ (+ (* 13.0 ?x1678) (* 4.0 ?x1678)) ?x3267) ?x1630) ?x7283) ?x3032)))
 (let ((?x1090 (* ?x1206 |v12:5|)))
 (let ((?x6806 (* ?x3293 |v1:16|)))
 (let ((?x5411 (+ (+ (+ (+ (* 20.0 ?x4651) ?x8153) (* ?x7386 |v17:0|)) (* ?x674 |v3:14|)) ?x6806)))
 (let (($x17 (or (<= (+ (+ ?x5411 ?x1090) (* 2.0 |v14:3|)) ?x674) (<= (+ ?x4045 ?x7283) ?x7386))))
 (let ((?x6215 (* 5.0 |v15:2|)))
 (let ((?x3111 (* 12.0 |v3:14|)))
 (let ((?x7369 (+ (+ (+ (+ (* 3.0 |v17:0|) (* ?x3293 |v0:17|)) ?x2354) (* 9.0 |v1:16|)) |v4:13|)))
 (let ((?x8965 (* ?x6815 ?x1195)))
 (let ((?x2610 (* 19.0 ?x1195)))
 (let ((?x3762 (* ?x2946 |v0:17|)))
 (let ((?x8113 (+ (+ (+ (+ (* ?x7386 |v4:13|) (* 15.0 |v3:14|)) (* ?x6815 ?x6905)) ?x3104) ?x3762)))
 (let (($x9166 (and (<= (+ (+ ?x8113 ?x2610) ?x8965) ?x4774) (<= (+ (+ ?x7369 ?x3111) ?x6215) ?x1560))))
 (let ((?x6106 (* 12.0 |v13:4|)))
 (let ((?x2913 (* 9.0 |v1:16|)))
 (let ((?x6324 (+ (+ (+ (+ (+ (* ?x5253 |v2:15|) (* ?x4774 |v2:15|)) ?x1581) |v12:5|) ?x2610) ?x2913)))
 (let ((?x2914 (* ?x4774 |v4:13|)))
 (let ((?x7531 (* 11.0 |v5:12|)))
 (let ((?x6456 (+ (+ (+ (+ (* (- 18.0) ?x1195) (* ?x4774 ?x1678)) (* ?x3523 |v1:16|)) ?x7531) ?x2914)))
 (let (($x4108 (or (and (<= (+ (+ ?x6456 ?x8455) ?x3422) 1.0) (<= (+ ?x6324 ?x6106) ?x8646)) $x9166)))
 (let (($x4357 (and (and (or $x4108 (or $x17 $x7357)) (and (or $x6801 $x7281) (or $x7582 $x7835))) $x2710)))
 (let ((?x7080 (* 2.0 |v15:2|)))
 (let ((?x338 (+ (+ (+ (+ (* ?x7413 |v15:2|) (* 11.0 |v3:14|)) |v14:3|) (* ?x2946 |v15:2|)) (* ?x3523 ?x6905))))
 (let ((?x4650 (* 5.0 |v5:12|)))
 (let ((?x9204 (+ (+ (+ (+ (* ?x735 |v2:15|) (* 8.0 ?x8153)) (* 16.0 ?x1678)) ?x6106) ?x923)))
 (let ((?x2170 (* 3.0 |v5:12|)))
 (let ((?x8962 (* 0.0 ?x1195)))
 (let ((?x5752 (* ?x5253 |v0:17|)))
 (let ((?x7881 (+ (+ (+ (+ (* 7.0 ?x6905) (* 20.0 |v15:2|)) (* 20.0 |v16:1|)) ?x5752) ?x6384)))
 (let (($x8172 (and (<= (+ (+ ?x7881 ?x8962) ?x2170) 5.0) (<= (+ (+ ?x9204 ?x4650) (* 5.0 ?x1678)) 2.0))))
 (let ((?x2087 (* 20.0 |v0:17|)))
 (let ((?x5535 (* ?x1206 |v1:16|)))
 (let ((?x664 (+ (+ (+ (* ?x2946 ?x1678) (* 18.0 ?x4651)) (* ?x4774 |v5:12|)) (* 5.0 ?x6905))))
 (let ((?x6501 (* 19.0 |v17:0|)))
 (let ((?x5191 (* 7.0 |v0:17|)))
 (let ((?x6331 (+ (+ (+ (+ (* 10.0 |v4:13|) (* (- 18.0) |v14:3|)) (* ?x3293 ?x1195)) ?x5191) (* ?x7655 |v12:5|))))
 (let (($x9458 (or (<= (+ (+ ?x6331 ?x6501) (* ?x1206 |v13:4|)) 2.0) (<= (+ (+ (+ ?x664 ?x5535) ?x2087) ?x5989) 12.0))))
 (let ((?x172 (* ?x7655 |v0:17|)))
 (let ((?x1756 (* ?x7386 |v2:15|)))
 (let ((?x904 (+ (+ (+ (* ?x6487 |v13:4|) (* ?x5253 ?x8153)) (* 17.0 |v0:17|)) (* ?x6815 |v17:0|))))
 (let ((?x375 (* 7.0 ?x4651)))
 (let ((?x2971 (* 6.0 |v12:5|)))
 (let ((?x7396 (+ (+ (+ (* ?x6831 ?x8153) (* 10.0 |v14:3|)) (* 14.0 |v5:12|)) (* ?x5253 ?x7153))))
 (let (($x5148 (or (<= (+ (+ (+ ?x7396 (* ?x3523 |v14:3|)) ?x2971) ?x375) 17.0) (<= (+ (+ (+ ?x904 (* 14.0 ?x1678)) ?x1756) ?x172) ?x928))))
 (let ((?x743 (* 0.0 |v0:17|)))
 (let ((?x6864 (* 14.0 |v13:4|)))
 (let ((?x5274 (+ (+ (+ (+ ?x3799 (* ?x4774 |v16:1|)) (* 10.0 |v2:15|)) (* ?x5253 |v3:14|)) ?x6864)))
 (let ((?x1167 (* 16.0 |v3:14|)))
 (let ((?x6693 (+ (+ (+ (+ ?x1164 (* 20.0 ?x7153)) (* 3.0 |v0:17|)) (* ?x976 |v0:17|)) ?x1167)))
 (let (($x1190 (or (<= (+ (+ ?x6693 (* ?x1206 |v15:2|)) (* ?x8646 ?x8153)) 10.0) (<= (+ (+ ?x5274 ?x743) ?x8455) 2.0))))
 (let ((?x7908 (- 18.0)))
 (let ((?x3620 (* ?x7908 |v17:0|)))
 (let ((?x7896 (* ?x8646 |v5:12|)))
 (let ((?x884 (* ?x6815 |v12:5|)))
 (let ((?x511 (+ (+ (+ (+ (* 11.0 |v2:15|) (* 17.0 |v13:4|)) (* ?x674 ?x4651)) ?x884) ?x7896)))
 (let ((?x2665 (+ (+ (+ (+ (* 13.0 |v16:1|) (* 13.0 ?x4651)) (* ?x976 |v1:16|)) ?x1581) (* ?x1560 ?x7153))))
 (let (($x3393 (and (<= (+ (+ ?x2665 ?x6501) (* ?x928 ?x1678)) 3.0) (<= (+ (+ ?x511 ?x3620) ?x8960) 12.0))))
 (let ((?x7425 (* ?x3523 |v1:16|)))
 (let ((?x8135 (+ (+ (+ (+ (* ?x976 ?x1678) (* ?x7413 |v16:1|)) (* ?x7413 ?x1678)) |v17:0|) ?x7425)))
 (let ((?x460 (+ (+ (+ (+ ?x3111 (* ?x6487 |v0:17|)) (* ?x7413 |v3:14|)) (* ?x7908 ?x7153)) ?x3799)))
 (let (($x5944 (or (<= (+ (+ ?x460 ?x1281) ?x6106) 16.0) (<= (+ (+ ?x8135 ?x1239) (* ?x4774 |v13:4|)) ?x976))))
 (let ((?x1227 (* ?x674 ?x6905)))
 (let ((?x3560 (+ (+ (+ (+ (+ ?x8651 (* 12.0 |v14:3|)) ?x1090) ?x1227) (* 13.0 ?x8153)) (* ?x7655 |v16:1|))))
 (let ((?x3414 (* 6.0 ?x1195)))
 (let ((?x8529 (* ?x2946 |v15:2|)))
 (let ((?x1915 (* ?x1206 ?x1195)))
 (let ((?x3590 (+ (+ (+ (+ (* ?x6815 |v5:12|) (* ?x7908 |v1:16|)) (* ?x2946 ?x8153)) ?x1915) ?x1281)))
 (let (($x7429 (or (or (<= (+ (+ ?x3590 ?x8529) ?x3414) 9.0) (<= (+ ?x3560 ?x1227) 14.0)) $x5944)))
 (let ((?x9173 (* ?x4774 ?x8153)))
 (let ((?x8295 (* 18.0 ?x1195)))
 (let ((?x6988 (+ (+ (+ (+ (* ?x1206 ?x7153) (* 16.0 ?x7153)) (* ?x5994 ?x1195)) ?x8295) (* 12.0 |v16:1|))))
 (let ((?x1582 (* 10.0 |v0:17|)))
 (let ((?x2141 (+ (+ (+ (+ (* 4.0 ?x8153) (* 11.0 |v15:2|)) ?x2597) (* ?x976 |v1:16|)) ?x2880)))
 (let (($x3903 (or (<= (+ (+ ?x2141 |v4:13|) ?x1582) 4.0) (<= (+ (+ ?x6988 ?x3598) ?x9173) 11.0))))
 (let ((?x7670 (* ?x1206 |v2:15|)))
 (let ((?x3534 (+ (+ (+ (* 13.0 |v1:16|) (* 11.0 |v3:14|)) (* ?x735 ?x7153)) (* ?x5994 ?x7153))))
 (let ((?x1209 (* 10.0 |v15:2|)))
 (let ((?x3592 (* 12.0 |v0:17|)))
 (let ((?x2918 (+ (+ (+ (+ (+ ?x9173 ?x4807) (* 17.0 ?x6905)) (* ?x7413 |v15:2|)) ?x3592) (* 16.0 ?x8153))))
 (let (($x516 (or (<= (+ ?x2918 ?x1209) ?x8646) (<= (+ (+ (+ ?x3534 ?x1420) ?x7670) ?x375) ?x6815))))
 (let (($x6231 (and (and (and $x516 $x3903) $x7429) (and (or $x3393 $x1190) (or $x5148 $x9458)))))
 (let (($x2979 (or (or (and $x6231 $x8172) (<= (+ (+ ?x338 ?x7569) ?x7080) ?x6487)) (and $x4357 $x971))))
 (let (($x4184 (not (= |v6:11_st| (RMk1 val!9551)))))
 (let (($x3947 (not (= |v7:10_st| (RMk1 val!9550)))))
 (let (($x3746 (not (= |v8:9_st| (RMk1 val!9549)))))
 (let (($x3505 (not (= |v9:8_st| (RMk1 val!9548)))))
 (let (($x1202 (not (= |v10:7_st| (RMk1 val!9547)))))
 (let (($x2351 (not (= |v11:6_st| (RMk1 val!9546)))))
 (and $x2351 $x1202 $x3505 $x3746 $x3947 $x4184 $x2979))))))))))))))))))))))))))))))))))))))))))))))))))))))))))))))))))))))))))))))))))))))))))))))))))))))))))))))))))))))))))))))))))))))))))))))))))))))))))))))))))))))))))))))))))))))))))))))))))))))))))))))))))))))))))))))))))))))))))))))))))))))))))))))))))))))))))))))))))))))))))))))))))))))))))))))))))))))))))))))
 )
 )
 )
 )
 )
 )
 )
 )
 )
 )
 )
 )
 )
 )
 )
 )
 )
 )
(check-sat)
